c feather-lastfm-social: A social network of LastFM users which was collected from the public API in March 2020.  https://snap.stanford.edu/data/feather-lastfm-social.html
p edge 450 508
e 1 170
e 1 281
e 2 50
e 2 326
e 2 409
e 2 45
e 2 279
e 2 186
e 2 337
e 3 435
e 3 97
e 4 66
e 5 243
e 5 136
e 5 409
e 6 115
e 6 402
e 7 138
e 8 115
e 9 366
e 9 297
e 10 45
e 11 447
e 11 184
e 11 168
e 12 134
e 12 201
e 13 313
e 14 45
e 15 428
e 16 376
e 16 51
e 17 22
e 18 38
e 18 305
e 19 242
e 19 368
e 20 240
e 20 163
e 20 252
e 20 269
e 21 116
e 22 382
e 22 49
e 22 231
e 22 26
e 23 193
e 24 188
e 24 325
e 25 254
e 25 401
e 25 58
e 25 383
e 26 235
e 27 119
e 27 366
e 27 370
e 28 50
e 29 215
e 30 397
e 31 399
e 32 59
e 32 350
e 32 335
e 33 51
e 33 232
e 33 409
e 33 234
e 34 326
e 35 264
e 36 180
e 37 112
e 39 86
e 40 313
e 41 444
e 42 338
e 43 409
e 44 106
e 45 155
e 45 439
e 45 270
e 45 303
e 45 75
e 45 132
e 45 238
e 45 147
e 45 246
e 45 73
e 46 199
e 46 380
e 47 153
e 47 433
e 48 112
e 48 357
e 49 268
e 49 447
e 49 385
e 49 413
e 49 328
e 50 198
e 50 225
e 50 373
e 50 310
e 51 442
e 52 254
e 52 90
e 53 76
e 53 274
e 53 385
e 54 181
e 55 339
e 56 115
e 57 281
e 59 194
e 59 76
e 60 448
e 60 233
e 60 287
e 60 70
e 61 435
e 62 260
e 62 105
e 62 128
e 62 437
e 62 107
e 62 285
e 63 311
e 64 281
e 65 112
e 66 300
e 66 190
e 66 149
e 66 313
e 67 391
e 68 390
e 68 80
e 68 276
e 68 430
e 68 415
e 69 181
e 71 90
e 71 229
e 72 122
e 72 223
e 72 88
e 72 385
e 73 316
e 74 273
e 76 351
e 76 340
e 76 390
e 76 334
e 76 85
e 76 220
e 76 311
e 77 134
e 78 112
e 79 184
e 80 176
e 80 134
e 80 145
e 80 230
e 80 168
e 80 309
e 81 124
e 81 178
e 82 106
e 83 147
e 84 388
e 84 373
e 84 150
e 84 151
e 85 114
e 85 138
e 85 346
e 85 169
e 86 181
e 87 334
e 88 122
e 89 281
e 89 121
e 90 114
e 90 256
e 90 193
e 90 122
e 91 422
e 91 398
e 91 245
e 92 290
e 93 273
e 93 173
e 94 425
e 95 156
e 95 112
e 96 131
e 97 446
e 97 230
e 98 354
e 98 212
e 98 380
e 99 311
e 100 252
e 101 141
e 102 134
e 102 424
e 103 396
e 103 398
e 103 363
e 103 168
e 104 134
e 104 263
e 106 267
e 106 348
e 106 137
e 106 320
e 106 388
e 106 293
e 108 325
e 109 346
e 109 362
e 109 272
e 110 281
e 111 233
e 112 157
e 112 200
e 112 301
e 112 224
e 112 438
e 112 423
e 112 314
e 112 231
e 112 236
e 112 302
e 112 450
e 113 124
e 115 180
e 116 415
e 116 365
e 116 335
e 117 343
e 118 169
e 118 134
e 118 205
e 118 182
e 118 336
e 118 190
e 118 416
e 119 129
e 120 310
e 121 339
e 121 434
e 123 126
e 124 141
e 124 179
e 124 345
e 124 317
e 125 359
e 125 226
e 126 273
e 126 432
e 127 132
e 129 243
e 130 358
e 130 189
e 131 322
e 131 233
e 131 444
e 131 440
e 132 260
e 132 299
e 132 330
e 132 411
e 132 251
e 133 288
e 134 416
e 134 391
e 134 323
e 134 436
e 134 144
e 134 424
e 134 440
e 134 189
e 134 135
e 134 414
e 134 377
e 135 381
e 137 393
e 138 413
e 139 388
e 139 341
e 140 161
e 142 388
e 143 422
e 144 374
e 144 203
e 144 286
e 144 445
e 144 210
e 146 204
e 147 421
e 147 243
e 148 281
e 150 408
e 152 413
e 153 399
e 153 264
e 153 237
e 153 278
e 154 341
e 156 248
e 156 356
e 158 281
e 159 281
e 160 360
e 161 212
e 162 369
e 164 263
e 165 181
e 166 210
e 167 178
e 168 398
e 168 309
e 168 220
e 168 294
e 168 195
e 168 441
e 168 427
e 168 329
e 168 217
e 168 189
e 168 416
e 171 281
e 171 316
e 172 311
e 172 396
e 174 303
e 174 192
e 175 388
e 176 424
e 176 289
e 177 290
e 177 190
e 177 211
e 178 345
e 178 181
e 181 387
e 181 447
e 181 292
e 181 406
e 181 315
e 182 194
e 183 254
e 183 265
e 184 253
e 185 445
e 187 417
e 191 301
e 195 432
e 196 388
e 197 281
e 198 426
e 198 443
e 199 301
e 199 341
e 202 449
e 202 318
e 202 208
e 202 385
e 203 340
e 204 360
e 204 343
e 204 318
e 206 415
e 207 289
e 208 375
e 209 286
e 212 247
e 212 388
e 213 301
e 214 345
e 215 273
e 216 310
e 217 239
e 217 390
e 218 281
e 219 277
e 220 401
e 220 428
e 221 271
e 221 352
e 222 283
e 222 284
e 223 283
e 223 371
e 226 335
e 227 286
e 228 281
e 230 414
e 230 308
e 230 275
e 231 379
e 231 388
e 233 288
e 240 367
e 241 316
e 242 307
e 244 338
e 249 368
e 249 409
e 249 417
e 249 281
e 250 281
e 252 364
e 253 342
e 254 401
e 254 328
e 255 417
e 255 389
e 257 319
e 257 314
e 258 385
e 259 303
e 261 339
e 262 427
e 266 353
e 266 427
e 268 372
e 268 313
e 269 412
e 269 330
e 271 388
e 273 328
e 273 418
e 273 365
e 273 331
e 277 349
e 277 416
e 277 447
e 277 283
e 280 281
e 281 312
e 281 291
e 281 321
e 281 386
e 282 412
e 283 447
e 283 355
e 286 305
e 295 348
e 296 420
e 298 437
e 299 407
e 299 310
e 301 388
e 303 400
e 303 324
e 304 322
e 304 413
e 305 342
e 306 373
e 316 425
e 317 420
e 317 424
e 317 382
e 317 325
e 319 333
e 320 419
e 322 424
e 323 390
e 325 328
e 327 447
e 328 422
e 332 396
e 338 444
e 340 387
e 343 405
e 344 417
e 346 413
e 346 401
e 347 390
e 351 390
e 351 447
e 353 397
e 361 437
e 362 390
e 368 410
e 369 381
e 377 405
e 377 385
e 377 394
e 377 399
e 378 398
e 384 428
e 385 431
e 385 390
e 388 429
e 390 424
e 390 427
e 390 430
e 392 444
e 395 416
e 396 415
e 397 404
e 400 402
e 403 422
e 408 429
e 420 427
e 422 424
l 178
t 61 297
